12 32 3 10
2 20 11 11 20 13 7 4 17 11 18 5 14 6 20 9 5 11 4 20 4 2 13 5 8 13 8 6 2 8 2 17 
11.7 12.27 9.36 11.37 4.21 1.18 12.2 3.08 14.27 12.26 1.35 14.4 14.51 0.4 0.58 1.82 4.53 13.06 15.35 8.43 0.94 8.51 4.49 5.17 2.95 12.48 0.86 3.89 13.22 15.88 12.06 6.25 
2.41 5.22 10.58 14.57 15.78 12.58 1.99 2 8.4 0.59 9.3 1.97 8.34 9.87 12.48 14.26 2.99 13.71 9.04 11.22 3.08 3.32 3.35 6.25 15.81 8.96 13.26 14.85 2.93 1.42 6.68 5.41 
4.52 5.3 4.05 10.82 12.41 6.06 2.96 4.93 13.39 14.06 2.11 5.67 5.05 15.7 14.52 1.06 12.83 6.74 9.52 1.79 12.35 12.04 0.95 14.04 0.16 10.02 1.35 0.9 2.05 0.05 6.43 9.95 
8 8 8 8 8 8 8 8 8 8 8 8 8 8 8 8 8 8 8 8 8 8 8 8 8 8 8 8 8 8 8 8 
1.81 1.78 6.39 7.21 9.71 3.3 0.3 1.3 9.61 4.73 3.82 12.1 3.92 7.18 6.43 4.29 6.46 7.74 9.75 1.47 4.79 4.17 0.53 1.65 12.19 10.1 1.83 12.77 15.46 0.04 9.92 1.3 
13.23 10.86 0.36 11.67 6.38 7.04 1.73 15.64 8.29 8.29 14.8 12.01 7.39 9.97 12.21 8.27 11.47 11.75 4.23 15.3 13.05 3.81 1.35 3.59 9.7 8.74 8.83 14.26 1.31 3.41 2.67 11.81 
9.88 6.3 2.22 9.44 0.52 15.14 2.1 3.25 10.78 13.94 8.81 14.71 13.24 0.35 14.14 2.09 8.98 4.02 8.4 9.72 5.7 10.79 12.16 5.55 5.69 10.35 15.58 15.08 14.91 15.25 7.56 10.79 
4.25 13.02 3.78 0.06 2.22 4.09 12.17 9.36 8.26 1.35 10.54 7.9 5.28 7.14 5.16 5.37 7.36 5.05 5.87 0.82 2.37 0.06 6.13 8.83 3.95 7.08 5.83 10.03 11.5 8.05 5.48 12.87 
13.09 5.45 1.21 0.16 5.5 8.49 7.41 1 15.24 9.59 6.91 7.99 9.35 8.75 9.44 7.13 6.15 13.55 0.35 8.42 8.26 0.87 9.91 15.89 4.46 10 1.91 11.06 6.92 15.76 3.15 4.77 
12.94 9.88 7.24 9.13 9.4 1.91 3.95 9.28 9.36 14.3 1.71 3.03 12.69 4.38 7.67 3.98 15.21 6.78 9.48 9.25 13.55 5.13 13.3 14.87 3.89 15.35 13.97 1.02 9.93 3.3 5.85 6.34 
11.46 8.01 12.61 7.83 11.61 9.14 8.16 13.72 10.57 4.97 0.96 10.56 14.02 14.25 5.49 6.01 4.39 4.25 9.28 8 2.2 8.14 14.46 10.13 3.62 11.88 12.9 11.84 1.45 15.36 1.95 4.65 
0.26 5.68 9.79 9.54 2.86 5.81 2.31 1.81 15.29 0.12 7.88 1.28 11.5 7.5 9.16 0.74 2.15 10.32 1.2 4.91 0.14 10.2 6 11.31 11.3 14.46 0.61 12.6 12.77 9.48 6.59 3.24 
1 1 1 1 1 1 1 1 1 1 1 1 1 1 1 1 1 1 1 1 1 1 1 1 1 1 1 1 1 1 1 1 
1 1 1 1 1 1 1 1 1 1 1 1 1 1 1 1 1 1 1 1 1 1 1 1 1 1 1 1 1 1 1 1 
1 1 1 1 1 1 1 1 1 1 1 1 1 1 1 1 1 1 1 1 1 1 1 1 1 1 1 1 1 1 1 1 
1 1 1 1 1 1 1 1 1 1 1 1 1 1 1 1 1 1 1 1 1 1 1 1 1 1 1 1 1 1 1 1 
1 1 1 1 1 1 1 1 1 1 1 1 1 1 1 1 1 1 1 1 1 1 1 1 1 1 1 1 1 1 1 1 
1 1 1 1 1 1 1 1 1 1 1 1 1 1 1 1 1 1 1 1 1 1 1 1 1 1 1 1 1 1 1 1 
1 1 1 1 1 1 1 1 1 1 1 1 1 1 1 1 1 1 1 1 1 1 1 1 1 1 1 1 1 1 1 1 
1 1 1 1 1 1 1 1 1 1 1 1 1 1 1 1 1 1 1 1 1 1 1 1 1 1 1 1 1 1 1 1 
1 1 1 1 1 1 1 1 1 1 1 1 1 1 1 1 1 1 1 1 1 1 1 1 1 1 1 1 1 1 1 1 
1 1 1 1 1 1 1 1 1 1 1 1 1 1 1 1 1 1 1 1 1 1 1 1 1 1 1 1 1 1 1 1 
1 1 1 1 1 1 1 1 1 1 1 1 1 1 1 1 1 1 1 1 1 1 1 1 1 1 1 1 1 1 1 1 
1 1 1 1 1 1 1 1 1 1 1 1 1 1 1 1 1 1 1 1 1 1 1 1 1 1 1 1 1 1 1 1 
0.01 0.01 0.01 0.01 0.01 0.01 0.01 0.01 0.01 0.01 0.01 0.01 0.01 0.01 0.01 0.01 0.01 0.01 0.01 0.01 0.01 0.01 0.01 0.01 0.01 0.01 0.01 0.01 0.01 0.01 0.01 0.01 
0.02 0.02 0.02 0.02 0.02 0.02 0.02 0.02 0.02 0.02 0.02 0.02 0.02 0.02 0.02 0.02 0.02 0.02 0.02 0.02 0.02 0.02 0.02 0.02 0.02 0.02 0.02 0.02 0.02 0.02 0.02 0.02 
0.03 0.03 0.03 0.03 0.03 0.03 0.03 0.03 0.03 0.03 0.03 0.03 0.03 0.03 0.03 0.03 0.03 0.03 0.03 0.03 0.03 0.03 0.03 0.03 0.03 0.03 0.03 0.03 0.03 0.03 0.03 0.03 
0.04 0.04 0.04 0.04 0.04 0.04 0.04 0.04 0.04 0.04 0.04 0.04 0.04 0.04 0.04 0.04 0.04 0.04 0.04 0.04 0.04 0.04 0.04 0.04 0.04 0.04 0.04 0.04 0.04 0.04 0.04 0.04 
0.125 0.125 0.125 0.125 0.125 0.125 0.125 0.125 0.125 0.125 0.125 0.125 0.125 0.125 0.125 0.125 0.125 0.125 0.125 0.125 0.125 0.125 0.125 0.125 0.125 0.125 0.125 0.125 0.125 0.125 0.125 0.125 
0.25 0.25 0.25 0.25 0.25 0.25 0.25 0.25 0.25 0.25 0.25 0.25 0.25 0.25 0.25 0.25 0.25 0.25 0.25 0.25 0.25 0.25 0.25 0.25 0.25 0.25 0.25 0.25 0.25 0.25 0.25 0.25 
0.375 0.375 0.375 0.375 0.375 0.375 0.375 0.375 0.375 0.375 0.375 0.375 0.375 0.375 0.375 0.375 0.375 0.375 0.375 0.375 0.375 0.375 0.375 0.375 0.375 0.375 0.375 0.375 0.375 0.375 0.375 0.375 
0.5 0.5 0.5 0.5 0.5 0.5 0.5 0.5 0.5 0.5 0.5 0.5 0.5 0.5 0.5 0.5 0.5 0.5 0.5 0.5 0.5 0.5 0.5 0.5 0.5 0.5 0.5 0.5 0.5 0.5 0.5 0.5 
0.625 0.625 0.625 0.625 0.625 0.625 0.625 0.625 0.625 0.625 0.625 0.625 0.625 0.625 0.625 0.625 0.625 0.625 0.625 0.625 0.625 0.625 0.625 0.625 0.625 0.625 0.625 0.625 0.625 0.625 0.625 0.625 
0.75 0.75 0.75 0.75 0.75 0.75 0.75 0.75 0.75 0.75 0.75 0.75 0.75 0.75 0.75 0.75 0.75 0.75 0.75 0.75 0.75 0.75 0.75 0.75 0.75 0.75 0.75 0.75 0.75 0.75 0.75 0.75 
0.875 0.875 0.875 0.875 0.875 0.875 0.875 0.875 0.875 0.875 0.875 0.875 0.875 0.875 0.875 0.875 0.875 0.875 0.875 0.875 0.875 0.875 0.875 0.875 0.875 0.875 0.875 0.875 0.875 0.875 0.875 0.875 
1 1 1 1 1 1 1 1 1 1 1 1 1 1 1 1 1 1 1 1 1 1 1 1 1 1 1 1 1 1 1 1 
